# Solution for model Master problem
# Objective value = 1.1291999999999991e+04
X_0_0 0
X_1_0 0
X_2_0 0
X_3_0 0
X_4_0 0
X_5_0 0
X_6_0 0
X_7_0 0
X_8_0 0
X_9_0 0
X_10_0 0
X_11_0 0
X_12_0 0
X_13_0 0
X_14_0 0
X_15_0 1
X_16_0 1
X_0_2 0
X_1_2 1
X_2_2 0
X_3_2 0
X_4_2 0
X_5_2 0
X_6_2 0
X_7_2 0
X_8_2 0
X_9_2 0
X_10_2 0
X_11_2 0
X_12_2 0
X_13_2 0
X_14_2 0
X_15_2 0
X_16_2 0
X_0_4 0
X_1_4 0
X_2_4 0
X_3_4 0
X_4_4 0
X_5_4 0
X_6_4 0
X_7_4 0
X_8_4 0
X_9_4 0
X_10_4 0
X_11_4 0
X_12_4 0
X_13_4 0
X_14_4 0
X_15_4 0
X_16_4 1
X_0_6 0
X_1_6 0
X_2_6 1
X_3_6 0
X_4_6 0
X_5_6 0
X_6_6 0
X_7_6 0
X_8_6 0
X_9_6 0
X_10_6 0
X_11_6 0
X_12_6 0
X_13_6 0
X_14_6 0
X_15_6 0
X_16_6 0
X_0_8 0
X_1_8 0
X_2_8 0
X_3_8 0
X_4_8 0
X_5_8 0
X_6_8 0
X_7_8 0
X_8_8 0
X_9_8 0
X_10_8 0
X_11_8 0
X_12_8 0
X_13_8 0
X_14_8 0
X_15_8 0
X_16_8 1
X_0_10 0
X_1_10 0
X_2_10 0
X_3_10 0
X_4_10 0
X_5_10 1
X_6_10 0
X_7_10 0
X_8_10 0
X_9_10 0
X_10_10 0
X_11_10 0
X_12_10 0
X_13_10 0
X_14_10 0
X_15_10 0
X_16_10 0
X_0_12 0
X_1_12 0
X_2_12 0
X_3_12 0
X_4_12 0
X_5_12 0
X_6_12 0
X_7_12 0
X_8_12 0
X_9_12 0
X_10_12 0
X_11_12 0
X_12_12 0
X_13_12 0
X_14_12 0
X_15_12 0
X_16_12 1
X_0_14 0
X_1_14 0
X_2_14 0
X_3_14 0
X_4_14 0
X_5_14 0
X_6_14 0
X_7_14 0
X_8_14 1
X_9_14 0
X_10_14 0
X_11_14 0
X_12_14 0
X_13_14 0
X_14_14 0
X_15_14 0
X_16_14 0
X_0_16 0
X_1_16 0
X_2_16 0
X_3_16 0
X_4_16 0
X_5_16 0
X_6_16 0
X_7_16 0
X_8_16 0
X_9_16 0
X_10_16 0
X_11_16 0
X_12_16 0
X_13_16 0
X_14_16 0
X_15_16 0
X_16_16 1
X_0_18 0
X_1_18 0
X_2_18 0
X_3_18 0
X_4_18 0
X_5_18 0
X_6_18 0
X_7_18 0
X_8_18 0
X_9_18 1
X_10_18 0
X_11_18 0
X_12_18 0
X_13_18 0
X_14_18 0
X_15_18 0
X_16_18 0
X_0_20 0
X_1_20 0
X_2_20 0
X_3_20 0
X_4_20 0
X_5_20 0
X_6_20 0
X_7_20 0
X_8_20 0
X_9_20 0
X_10_20 0
X_11_20 0
X_12_20 0
X_13_20 0
X_14_20 0
X_15_20 0
X_16_20 1
X_0_22 0
X_1_22 0
X_2_22 0
X_3_22 0
X_4_22 0
X_5_22 0
X_6_22 0
X_7_22 0
X_8_22 0
X_9_22 0
X_10_22 0
X_11_22 1
X_12_22 0
X_13_22 0
X_14_22 0
X_15_22 0
X_16_22 0
X_0_24 0
X_1_24 0
X_2_24 0
X_3_24 0
X_4_24 0
X_5_24 0
X_6_24 0
X_7_24 0
X_8_24 0
X_9_24 0
X_10_24 0
X_11_24 0
X_12_24 0
X_13_24 0
X_14_24 0
X_15_24 0
X_16_24 1
X_0_26 0
X_1_26 0
X_2_26 0
X_3_26 0
X_4_26 0
X_5_26 0
X_6_26 0
X_7_26 0
X_8_26 0
X_9_26 0
X_10_26 0
X_11_26 0
X_12_26 0
X_13_26 1
X_14_26 0
X_15_26 0
X_16_26 0
X_0_28 0
X_1_28 0
X_2_28 0
X_3_28 0
X_4_28 0
X_5_28 0
X_6_28 0
X_7_28 0
X_8_28 0
X_9_28 0
X_10_28 0
X_11_28 0
X_12_28 0
X_13_28 0
X_14_28 0
X_15_28 0
X_16_28 1
X_0_30 0
X_1_30 0
X_2_30 0
X_3_30 0
X_4_30 0
X_5_30 0
X_6_30 0
X_7_30 0
X_8_30 0
X_9_30 0
X_10_30 0
X_11_30 0
X_12_30 0
X_13_30 0
X_14_30 1
X_15_30 0
X_16_30 0
X_0_32 1
X_1_32 0
X_2_32 0
X_3_32 0
X_4_32 0
X_5_32 0
X_6_32 0
X_7_32 0
X_8_32 0
X_9_32 0
X_10_32 0
X_11_32 0
X_12_32 0
X_13_32 0
X_14_32 0
X_15_32 0
X_16_32 0
X_0_34 0
X_1_34 0
X_2_34 0
X_3_34 1
X_4_34 0
X_5_34 0
X_6_34 0
X_7_34 0
X_8_34 0
X_9_34 0
X_10_34 0
X_11_34 0
X_12_34 0
X_13_34 0
X_14_34 0
X_15_34 0
X_16_34 0
X_0_36 0
X_1_36 0
X_2_36 0
X_3_36 0
X_4_36 1
X_5_36 0
X_6_36 0
X_7_36 0
X_8_36 0
X_9_36 0
X_10_36 0
X_11_36 0
X_12_36 0
X_13_36 0
X_14_36 0
X_15_36 0
X_16_36 0
X_0_38 0
X_1_38 0
X_2_38 0
X_3_38 0
X_4_38 0
X_5_38 0
X_6_38 1
X_7_38 0
X_8_38 0
X_9_38 0
X_10_38 0
X_11_38 0
X_12_38 0
X_13_38 0
X_14_38 0
X_15_38 0
X_16_38 0
X_0_40 0
X_1_40 0
X_2_40 0
X_3_40 0
X_4_40 0
X_5_40 0
X_6_40 0
X_7_40 1
X_8_40 0
X_9_40 0
X_10_40 0
X_11_40 0
X_12_40 0
X_13_40 0
X_14_40 0
X_15_40 0
X_16_40 0
X_0_42 0
X_1_42 0
X_2_42 0
X_3_42 0
X_4_42 0
X_5_42 0
X_6_42 0
X_7_42 0
X_8_42 0
X_9_42 0
X_10_42 1
X_11_42 0
X_12_42 0
X_13_42 0
X_14_42 0
X_15_42 0
X_16_42 0
X_0_44 0
X_1_44 0
X_2_44 0
X_3_44 0
X_4_44 0
X_5_44 0
X_6_44 0
X_7_44 0
X_8_44 0
X_9_44 0
X_10_44 0
X_11_44 0
X_12_44 1
X_13_44 0
X_14_44 0
X_15_44 0
X_16_44 1
theta_0_0_0 33
theta_0_0_1 3
theta_0_0_2 35
theta_0_0_3 11
theta_0_0_4 39
theta_0_0_5 15
theta_0_0_6 43
theta_0_0_7 23
theta_0_0_8 45
theta_0_0_9 27
theta_1_0_0 33
theta_1_0_1 7
theta_1_0_2 37
theta_1_0_3 11
theta_1_0_4 41
theta_1_0_5 19
theta_1_0_6 43
theta_1_0_7 23
theta_1_0_8 45
theta_1_0_9 31
Z_0_0_0_1_0 180
ZP_0_0_0_1_0 -180
Z_1_0_0_1_0 156
ZP_1_0_0_1_0 -156
Z_0_1_0_1_0 180
ZP_0_1_0_1_0 -180
Z_1_1_0_1_0 156
ZP_1_1_0_1_0 -156
Z_0_0_0_0_1 156
ZP_0_0_0_0_1 156
Z_1_0_0_0_1 156
ZP_1_0_0_0_1 156
Z_0_1_0_0_1 180
ZP_0_1_0_0_1 180
Z_1_1_0_0_1 180
ZP_1_1_0_0_1 180
Z_0_0_0_2_1 168
ZP_0_0_0_2_1 168
Z_1_0_0_2_1 180
ZP_1_0_0_2_1 180
Z_0_1_0_2_1 192
ZP_0_1_0_2_1 192
Z_1_1_0_2_1 204
ZP_1_1_0_2_1 204
Z_0_0_0_1_2 204
ZP_0_0_0_1_2 -204
Z_1_0_0_1_2 180
ZP_1_0_0_1_2 -180
Z_0_1_0_1_2 192
ZP_0_1_0_1_2 -192
Z_1_1_0_1_2 168
ZP_1_1_0_1_2 -168
Z_0_0_0_3_2 156
ZP_0_0_0_3_2 -156
Z_1_0_0_3_2 156
ZP_1_0_0_3_2 -156
Z_0_1_0_3_2 144
ZP_0_1_0_3_2 -144
Z_1_1_0_3_2 144
ZP_1_1_0_3_2 -144
Z_0_0_0_2_3 144
ZP_0_0_0_2_3 144
Z_1_0_0_2_3 156
ZP_1_0_0_2_3 156
Z_0_1_0_2_3 144
ZP_0_1_0_2_3 144
Z_1_1_0_2_3 156
ZP_1_1_0_2_3 156
Z_0_0_0_4_3 168
ZP_0_0_0_4_3 168
Z_1_0_0_4_3 180
ZP_1_0_0_4_3 180
Z_0_1_0_4_3 168
ZP_0_1_0_4_3 168
Z_1_1_0_4_3 180
ZP_1_1_0_4_3 180
Z_0_0_0_3_4 180
ZP_0_0_0_3_4 -180
Z_1_0_0_3_4 180
ZP_1_0_0_3_4 -180
Z_0_1_0_3_4 168
ZP_0_1_0_3_4 -168
Z_1_1_0_3_4 168
ZP_1_1_0_3_4 -168
Z_0_0_0_5_4 156
ZP_0_0_0_5_4 -156
Z_1_0_0_5_4 132
ZP_1_0_0_5_4 -132
Z_0_1_0_5_4 144
ZP_0_1_0_5_4 -144
Z_1_1_0_5_4 120
ZP_1_1_0_5_4 -120
Z_0_0_0_4_5 120
ZP_0_0_0_4_5 120
Z_1_0_0_4_5 132
ZP_1_0_0_4_5 132
Z_0_1_0_4_5 144
ZP_0_1_0_4_5 144
Z_1_1_0_4_5 156
ZP_1_1_0_4_5 156
Z_0_0_0_6_5 144
ZP_0_0_0_6_5 144
Z_1_0_0_6_5 144
ZP_1_0_0_6_5 144
Z_0_1_0_6_5 168
ZP_0_1_0_6_5 168
Z_1_1_0_6_5 168
ZP_1_1_0_6_5 168
Z_0_0_0_5_6 168
ZP_0_0_0_5_6 -168
Z_1_0_0_5_6 144
ZP_1_0_0_5_6 -144
Z_0_1_0_5_6 168
ZP_0_1_0_5_6 -168
Z_1_1_0_5_6 144
ZP_1_1_0_5_6 -144
Z_0_0_0_7_6 120
ZP_0_0_0_7_6 -120
Z_1_0_0_7_6 120
ZP_1_0_0_7_6 -120
Z_0_1_0_7_6 120
ZP_0_1_0_7_6 -120
Z_1_1_0_7_6 120
ZP_1_1_0_7_6 -120
Z_0_0_0_6_7 120
ZP_0_0_0_6_7 120
Z_1_0_0_6_7 120
ZP_1_0_0_6_7 120
Z_0_1_0_6_7 120
ZP_0_1_0_6_7 120
Z_1_1_0_6_7 120
ZP_1_1_0_6_7 120
Z_0_0_0_8_7 132
ZP_0_0_0_8_7 132
Z_1_0_0_8_7 132
ZP_1_0_0_8_7 132
Z_0_1_0_8_7 132
ZP_0_1_0_8_7 132
Z_1_1_0_8_7 132
ZP_1_1_0_8_7 132
Z_0_0_0_7_8 132
ZP_0_0_0_7_8 -132
Z_1_0_0_7_8 132
ZP_1_0_0_7_8 -132
Z_0_1_0_7_8 132
ZP_0_1_0_7_8 -132
Z_1_1_0_7_8 132
ZP_1_1_0_7_8 -132
Z_0_0_0_9_8 108
ZP_0_0_0_9_8 -108
Z_1_0_0_9_8 84
ZP_1_0_0_9_8 -84
Z_0_1_0_9_8 108
ZP_0_1_0_9_8 -108
Z_1_1_0_9_8 84
ZP_1_1_0_9_8 -84
Z_0_0_0_8_9 84
ZP_0_0_0_8_9 84
Z_1_0_0_8_9 84
ZP_1_0_0_8_9 84
Z_0_1_0_8_9 108
ZP_0_1_0_8_9 108
Z_1_1_0_8_9 108
ZP_1_1_0_8_9 108
eta_0_0 720
eta_0_1 1464
eta_0_2 1452
eta_0_3 720
eta_0_4 1452
eta_0_5 1464
eta_0_6 720
eta_0_7 720
eta_0_8 720
eta_0_9 1464
tmpp_var00 33
tmpp_var10 3
tmpp_var20 7
tmpp_var30 35
tmpp_var40 37
tmpp_var50 11
tmpp_var60 39
tmpp_var70 41
tmpp_var80 15
tmpp_var90 19
tmpp_var100 43
tmpp_var110 23
tmpp_var120 45
tmpp_var130 27
tmpp_var140 31
theta 11292
AA0 7
BB0 45
tau_0_0 0
tau_1_0 0
tau_0_2 1
tau_1_2 0
tau_0_4 1
tau_1_4 0
tau_0_6 1
tau_1_6 0
tau_0_8 1
tau_1_8 1
tau_0_10 1
tau_1_10 1
tau_0_12 1
tau_1_12 1
tau_0_14 1
tau_1_14 1
tau_0_16 1
tau_1_16 1
tau_0_18 1
tau_1_18 1
tau_0_20 1
tau_1_20 1
tau_0_22 1
tau_1_22 1
tau_0_24 1
tau_1_24 1
tau_0_26 1
tau_1_26 1
tau_0_28 1
tau_1_28 1
tau_0_30 1
tau_1_30 1
tau_0_32 1
tau_1_32 1
tau_0_34 1
tau_1_34 1
tau_0_36 1
tau_1_36 1
tau_0_38 1
tau_1_38 1
tau_0_40 1
tau_1_40 1
tau_0_42 1
tau_1_42 1
tau_0_44 1
tau_1_44 1
